
(declare-datatypes () ((Nat (succ (pred Nat)) (zero))))
(declare-datatypes () ((Lst (cons (head Nat) (tail Lst)) (nil))))
(declare-datatypes () ((Tree (node (data Nat) (left Tree) (right Tree)) (leaf))))
(declare-datatypes () ((Pair (mkpair (first Nat) (second Nat)))
                       (ZLst (zcons (zhead Pair) (ztail ZLst)) (znil))))
(declare-fun P (Nat) Bool)
(declare-fun f (Nat) Nat)
(declare-fun less (Nat Nat) Bool)
(declare-fun plus (Nat Nat) Nat)
(declare-fun minus (Nat Nat) Nat)
(declare-fun mult (Nat Nat) Nat)
(declare-fun nmax (Nat Nat) Nat)
(declare-fun nmin (Nat Nat) Nat)
(declare-fun append (Lst Lst) Lst)
(declare-fun len (Lst) Nat)
(declare-fun drop (Nat Lst) Lst)
(declare-fun take (Nat Lst) Lst)
(declare-fun count (Nat Lst) Nat)
(declare-fun last (Lst) Nat)
(declare-fun butlast (Lst) Lst)
(declare-fun mem (Nat Lst) Bool)
(declare-fun delete (Nat Lst) Lst)
(declare-fun rev (Lst) Lst)
(declare-fun lmap (Lst) Lst)
(declare-fun filter (Lst) Lst)
(declare-fun dropWhile (Lst) Lst)
(declare-fun takeWhile (Lst) Lst)
(declare-fun ins1 (Nat Lst) Lst)
(declare-fun insort (Nat Lst) Lst)
(declare-fun sorted (Lst) Bool)
(declare-fun sort (Lst) Lst)
(declare-fun zip (Lst Lst) ZLst)
(declare-fun zappend (ZLst ZLst) ZLst)
(declare-fun zdrop (Nat ZLst) ZLst)
(declare-fun ztake (Nat ZLst) ZLst)
(declare-fun zrev (ZLst) ZLst)
(declare-fun mirror (Tree) Tree)
(declare-fun height (Tree) Nat)
(declare-fun safeHead (Lst) Nat)
(define-fun leq ((x Nat) (y Nat)) Bool (or (= x y) (less x y)))
(assert (forall ((n Nat)) (= (minus zero n) zero)))
(assert (forall ((n Nat)) (= (minus n zero) n)))
(assert (forall ((n Nat) (m Nat)) (= (minus (succ n) (succ m)) (minus n m))))
(assert (= (safeHead nil) zero))
(assert (forall ((x Nat) (xs Lst)) (= (safeHead (cons x xs)) x)))
(assert (not
(forall ((xs Lst)) (= (minus (safeHead xs) (safeHead xs)) zero)) ; subHead
))
(check-sat)
